NAME : gr96.95285.tour
COMMENT : Cost = 19389_95285
COMMENT : Found by LKH [Keld Helsgaun] Thu Nov 16 17:27:03 2017
TYPE : TOUR
DIMENSION : 100
TOUR_SECTION
1
30
34
44
45
46
47
48
25
24
27
65
96
94
68
67
66
64
63
54
50
31
97
2
3
4
5
6
7
8
9
10
12
13
14
15
16
17
20
18
19
21
22
26
28
23
11
33
29
98
55
59
95
93
57
56
100
36
37
38
39
51
69
70
74
78
92
77
76
75
73
72
71
61
62
60
58
53
52
49
43
42
41
40
35
32
99
80
91
90
89
88
87
86
85
84
82
81
83
79
-1
EOF
